p cnf 50 120
c p show 1 2 3 4 5 6 7 8 9 10 11 12 13 14 15 16 17 18 19 20 21 22 23 24 25 26 27 28 29 30 31 32 33 34 35 36 37 38 39 40 41 42 43 44 45 46 47 48 49 50 0
c p weight -50 0.3157023829890358
c p weight -49 0.3157023829890358
c p weight -48 0.3157023829890358
c p weight -47 0.3157023829890358
c p weight -46 0.3157023829890358
c p weight -45 0.3157023829890358
c p weight -44 0.3157023829890358
c p weight -43 0.3157023829890358
c p weight -42 0.3157023829890358
c p weight -41 0.3157023829890358
c p weight -40 0.3157023829890358
c p weight -39 0.3157023829890358
c p weight -38 0.3157023829890358
c p weight -37 0.3157023829890358
c p weight -36 0.3157023829890358
c p weight -35 0.3157023829890358
c p weight -34 0.3157023829890358
c p weight -33 0.3157023829890358
c p weight -32 0.3157023829890358
c p weight -31 0.3157023829890358
c p weight -30 0.9048374180359595
c p weight -29 0.9048374180359595
c p weight -28 0.9048374180359595
c p weight -27 0.9048374180359595
c p weight -26 0.9048374180359595
c p weight -25 0.9048374180359595
c p weight -24 0.9048374180359595
c p weight -23 0.9048374180359595
c p weight -22 0.9048374180359595
c p weight -21 0.9048374180359595
c p weight -20 1.0
c p weight -19 1.0
c p weight -18 1.0
c p weight -17 1.0
c p weight -16 1.0
c p weight -15 1.0
c p weight -14 1.0
c p weight -13 1.0
c p weight -12 1.0
c p weight -11 1.0
c p weight -10 1.0
c p weight -9 1.0
c p weight -8 1.0
c p weight -7 1.0
c p weight -6 1.0
c p weight -5 1.0
c p weight -4 1.0
c p weight -3 1.0
c p weight -2 1.0
c p weight -1 1.0
c p weight 1 1.0
c p weight 2 1.0
c p weight 3 1.0
c p weight 4 1.0
c p weight 5 1.0
c p weight 6 1.0
c p weight 7 1.0
c p weight 8 1.0
c p weight 9 1.0
c p weight 10 1.0
c p weight 11 1.0
c p weight 12 1.0
c p weight 13 1.0
c p weight 14 1.0
c p weight 15 1.0
c p weight 16 1.0
c p weight 17 1.0
c p weight 18 1.0
c p weight 19 1.0
c p weight 20 1.0
c p weight 21 1.1051709180756477
c p weight 22 1.1051709180756477
c p weight 23 1.1051709180756477
c p weight 24 1.1051709180756477
c p weight 25 1.1051709180756477
c p weight 26 1.1051709180756477
c p weight 27 1.1051709180756477
c p weight 28 1.1051709180756477
c p weight 29 1.1051709180756477
c p weight 30 1.1051709180756477
c p weight 31 3.1675402337230048
c p weight 32 3.1675402337230048
c p weight 33 3.1675402337230048
c p weight 34 3.1675402337230048
c p weight 35 3.1675402337230048
c p weight 36 3.1675402337230048
c p weight 37 3.1675402337230048
c p weight 38 3.1675402337230048
c p weight 39 3.1675402337230048
c p weight 40 3.1675402337230048
c p weight 41 3.1675402337230048
c p weight 42 3.1675402337230048
c p weight 43 3.1675402337230048
c p weight 44 3.1675402337230048
c p weight 45 3.1675402337230048
c p weight 46 3.1675402337230048
c p weight 47 3.1675402337230048
c p weight 48 3.1675402337230048
c p weight 49 3.1675402337230048
c p weight 50 3.1675402337230048
1 -2 -21 0
1 2 21 0
-1 2 -21 0
-1 -2 21 0
3 -4 -22 0
3 4 22 0
-3 4 -22 0
-3 -4 22 0
5 -6 -23 0
5 6 23 0
-5 6 -23 0
-5 -6 23 0
7 -8 -24 0
7 8 24 0
-7 8 -24 0
-7 -8 24 0
9 -10 -25 0
9 10 25 0
-9 10 -25 0
-9 -10 25 0
11 -12 -26 0
11 12 26 0
-11 12 -26 0
-11 -12 26 0
13 -14 -27 0
13 14 27 0
-13 14 -27 0
-13 -14 27 0
15 -16 -28 0
15 16 28 0
-15 16 -28 0
-15 -16 28 0
17 -18 -29 0
17 18 29 0
-17 18 -29 0
-17 -18 29 0
19 -20 -30 0
19 20 30 0
-19 20 -30 0
-19 -20 30 0
1 -3 -31 0
1 3 31 0
-1 3 -31 0
-1 -3 31 0
2 -4 -32 0
2 4 32 0
-2 4 -32 0
-2 -4 32 0
3 -5 -33 0
3 5 33 0
-3 5 -33 0
-3 -5 33 0
4 -6 -34 0
4 6 34 0
-4 6 -34 0
-4 -6 34 0
5 -7 -35 0
5 7 35 0
-5 7 -35 0
-5 -7 35 0
6 -8 -36 0
6 8 36 0
-6 8 -36 0
-6 -8 36 0
7 -9 -37 0
7 9 37 0
-7 9 -37 0
-7 -9 37 0
8 -10 -38 0
8 10 38 0
-8 10 -38 0
-8 -10 38 0
9 -11 -39 0
9 11 39 0
-9 11 -39 0
-9 -11 39 0
10 -12 -40 0
10 12 40 0
-10 12 -40 0
-10 -12 40 0
11 -13 -41 0
11 13 41 0
-11 13 -41 0
-11 -13 41 0
12 -14 -42 0
12 14 42 0
-12 14 -42 0
-12 -14 42 0
13 -15 -43 0
13 15 43 0
-13 15 -43 0
-13 -15 43 0
14 -16 -44 0
14 16 44 0
-14 16 -44 0
-14 -16 44 0
15 -17 -45 0
15 17 45 0
-15 17 -45 0
-15 -17 45 0
16 -18 -46 0
16 18 46 0
-16 18 -46 0
-16 -18 46 0
17 -19 -47 0
17 19 47 0
-17 19 -47 0
-17 -19 47 0
18 -20 -48 0
18 20 48 0
-18 20 -48 0
-18 -20 48 0
1 -19 -49 0
1 19 49 0
-1 19 -49 0
-1 -19 49 0
2 -20 -50 0
2 20 50 0
-2 20 -50 0
-2 -20 50 0